(set-logic ALL)
(declare-var c (_ BitVec 32))
(declare-var i (_ BitVec 32))
(declare-var c! (_ BitVec 32))
(declare-var i! (_ BitVec 32))
(synth-fun inv-f((parameter0 (_ BitVec 32))(parameter1 (_ BitVec 32)))Bool) 
(constraint (=> (= i (_ bv0 32))(inv-f c i )))
(constraint (=> (and (inv-f c i ) (and (bvugt c (_ bv48 32)) (and (bvult c (_ bv57 32)) (= i! (bvadd (bvadd i i) (bvsub c (_ bv48 32)))) ) ) )(inv-f c! i! )))
(constraint (=> (inv-f c i )(or (bvugt c (_ bv57 32)) (or (bvult c (_ bv48 32)) (bvuge i (_ bv0 32)) ) )))
(check-synth)

